words_easy_train/words_84_UNSAT.qaiger
aag 28 16 0 1 12
6
20
26
24
4
22
30
32
10
8
18
14
12
16
28
2
57
34 32 16
36 15 13
38 36 11
40 38 9
42 41 32
44 28 4
46 30 6
48 47 45
50 48 43
52 51 35
54 50 34
56 55 53
i0 2 y2[2]
i1 1 x1[1]
i2 1 x1[4]
i3 1 x1[3]
i4 2 y2[1]
i5 1 x1[2]
i6 1 x1[6]
i7 1 x1[7]
i8 2 y2[4]
i9 2 y2[3]
i10 1 x1[0]
i11 2 y2[6]
i12 2 y2[5]
i13 2 y2[7]
i14 1 x1[5]
i15 2 y2[0]
o0 bv[0]
c
simplified
  >
    and
      2 y2
      >> 4
        1 x1
    1
