words_easy_train/words_84_UNSAT.qaiger.qdimacs
p cnf 28 37
a 9 10 11 12 13 14 15 16 0
e 1 2 3 4 5 6 7 8 17 18 19 20 21 22 23 24 25 26 27 28 0
-16 -8 17 0
16 -17 0
8 -17 0
7 6 18 0
-7 -18 0
-6 -18 0
-18 5 19 0
18 -19 0
-5 -19 0
-19 4 20 0
19 -20 0
-4 -20 0
20 -16 21 0
-20 -21 0
16 -21 0
-14 -2 22 0
14 -22 0
2 -22 0
-15 -3 23 0
15 -23 0
3 -23 0
23 22 24 0
-23 -24 0
-22 -24 0
-24 21 25 0
24 -25 0
-21 -25 0
25 17 26 0
-25 -26 0
-17 -26 0
-25 -17 27 0
25 -27 0
17 -27 0
27 26 28 0
-27 -28 0
-26 -28 0
-28 0
